% seed = 0

mint = 23;
% maxt = 80;

nActs = 32;
dur = [0,3,2,3,4,4,4,4,2,5,1,3,2,1,1,2,1,2,2,3,3,6,3,3,2,2,1,3,2,4,2,0];

nSkills = 12;
sreq = [| 0,0,0,0,0,0,0,0,0,0,0,0,
	| 0,0,0,0,0,1,0,0,0,0,0,0,
	| 0,0,0,0,0,2,1,1,0,0,0,0,
	| 0,0,1,0,0,1,0,0,0,0,2,0,
	| 0,0,2,0,0,1,1,0,0,0,0,0,
	| 0,0,0,0,1,0,0,0,0,0,2,0,
	| 0,0,0,0,0,1,0,0,0,2,0,0,
	| 0,0,1,1,0,2,0,0,0,0,1,0,
	| 0,1,0,0,0,0,0,1,0,0,1,0,
	| 0,0,0,1,0,0,0,0,2,1,1,0,
	| 0,0,1,1,0,0,0,0,0,0,1,0,
	| 0,0,0,0,0,0,0,0,0,0,2,0,
	| 0,1,0,0,1,1,0,0,0,0,2,0,
	| 0,0,0,0,1,0,0,0,1,0,0,0,
	| 0,0,1,0,1,0,0,0,0,0,0,0,
	| 0,0,0,0,0,1,0,1,0,0,0,0,
	| 0,1,0,0,0,0,0,1,1,0,2,0,
	| 0,0,0,0,0,0,0,0,0,0,1,0,
	| 0,0,0,0,0,0,0,0,1,0,1,0,
	| 0,0,1,0,1,1,0,0,1,0,0,0,
	| 0,0,0,0,0,1,0,0,0,0,2,0,
	| 0,0,0,0,0,0,1,0,0,0,1,0,
	| 0,0,2,0,1,0,0,0,1,0,1,0,
	| 0,0,0,0,0,0,0,0,0,0,1,0,
	| 0,0,0,0,0,0,0,0,1,0,0,0,
	| 0,0,0,1,0,0,0,0,2,1,1,0,
	| 0,0,0,1,0,0,0,0,1,1,0,0,
	| 1,0,1,1,0,1,0,0,0,0,0,0,
	| 0,0,0,1,0,1,0,0,1,0,0,1,
	| 0,0,2,0,0,0,0,0,0,0,0,0,
	| 0,0,0,0,1,1,0,2,0,1,0,0,
	| 0,0,0,0,0,0,0,0,0,0,0,0, |];

% SumOfsreq = 95;

nResources = 16;
mastery = [| false,true,true,false,false,false,false,false,false,false,false,false,
	| false,false,false,false,false,false,false,true,true,false,false,true,
	| true,true,true,false,false,true,false,false,false,true,true,true,
	| false,false,false,true,true,true,false,false,false,true,true,true,
	| false,false,false,false,false,false,false,true,true,false,false,false,
	| false,false,false,false,false,false,false,false,false,true,true,true,
	| false,false,false,true,true,true,true,true,true,false,false,false,
	| false,false,false,true,true,true,false,false,false,false,false,false,
	| false,false,false,false,true,true,false,false,false,false,true,true,
	| false,false,false,false,false,false,false,false,false,false,true,true,
	| false,false,false,false,true,true,false,false,false,true,true,true,
	| false,true,true,true,true,true,false,false,false,true,true,true,
	| false,false,false,false,false,false,false,false,true,false,false,false,
	| false,false,false,false,false,false,false,false,false,false,true,true,
	| false,false,true,false,false,false,false,false,false,false,false,true,
	| false,false,false,false,false,true,false,false,false,false,false,false, |];

nPrecs = 48;
pred = [1,1,1,2,2,2,3,3,4,5,6,6,6,7,8,8,9,10,10,11,11,11,12,12,13,14,15,15,15,16,17,18,19,19,20,21,21,22,23,23,24,25,26,27,28,29,30,31];
succ = [2,3,4,9,6,7,10,22,5,21,19,30,8,12,26,11,14,18,16,18,13,24,15,16,15,19,17,20,31,23,28,29,25,27,28,30,23,23,25,27,31,26,31,28,29,32,32,32];

nUnrels = 242;
unpred = [2,2,2,2,2,2,3,3,3,3,3,3,3,3,3,3,3,3,3,3,3,3,3,4,4,4,4,4,4,4,4,4,4,4,4,4,4,4,4,4,5,5,5,5,5,5,5,5,5,5,5,5,5,5,5,5,5,6,6,6,6,6,6,6,6,6,7,7,7,7,7,7,7,7,7,7,7,7,8,8,8,8,8,8,8,8,8,8,8,8,9,9,9,9,9,9,9,9,9,9,9,9,9,9,10,10,10,10,10,10,10,10,10,10,10,10,11,11,11,11,11,11,11,11,11,11,11,12,12,12,12,12,12,12,12,13,13,13,13,13,13,13,13,13,13,13,13,14,14,14,14,14,14,14,14,14,14,15,15,15,15,15,15,15,15,15,15,15,16,16,16,16,16,16,16,16,17,17,17,17,17,17,17,17,17,17,17,17,18,18,18,18,18,18,18,18,18,18,18,18,19,19,19,19,19,19,20,20,20,20,20,20,20,20,20,21,21,22,22,23,23,24,24,24,24,24,24,25,25,25,25,26,26,26,26,27,27,28,28,29,29,30];
unsucc = [3,4,5,10,21,22,4,5,6,7,8,9,11,12,13,14,15,17,19,20,21,24,30,6,7,8,9,10,11,12,13,14,15,16,17,18,19,20,22,24,6,7,8,9,10,11,12,13,14,15,16,17,18,19,20,22,24,7,9,10,12,14,16,21,22,23,8,9,10,11,13,14,18,19,21,22,24,30,9,10,12,14,16,19,21,22,23,25,27,30,10,11,12,13,15,16,17,18,20,21,22,23,24,30,11,12,13,14,15,17,19,20,21,22,24,30,12,14,16,19,21,22,23,25,26,27,30,13,14,18,19,21,22,24,30,14,16,18,19,21,22,23,24,25,26,27,30,15,16,17,18,20,21,22,23,24,30,16,18,19,21,22,23,24,25,26,27,30,17,18,19,20,21,22,24,30,18,19,20,21,22,23,24,25,26,27,30,31,19,20,21,22,23,24,25,26,27,28,30,31,20,21,22,23,24,30,21,22,23,24,25,26,27,30,31,22,24,24,30,24,30,25,26,27,28,29,30,27,28,29,30,27,28,29,30,30,31,30,31,30,31,31];

USEFUL_RES = [{},
	{3,4,7,8,9,11,12,16},
	{2,3,4,5,7,8,9,11,12,16},
	{1,3,4,6,7,8,9,10,11,12,14,15,16},
	{1,3,4,7,8,9,11,12,15,16},
	{3,4,6,7,8,9,10,11,12,14},
	{3,4,6,7,8,9,11,12,16},
	{1,3,4,6,7,8,9,10,11,12,14,15,16},
	{1,2,3,4,5,6,7,9,10,11,12,14},
	{2,3,4,5,6,7,8,9,10,11,12,13,14},
	{1,3,4,6,7,8,9,10,11,12,14,15},
	{3,4,6,9,10,11,12,14},
	{1,3,4,6,7,8,9,10,11,12,14,16},
	{2,4,5,7,8,9,11,12,13},
	{1,3,4,7,8,9,11,12,15},
	{2,3,4,5,7,8,9,11,12,16},
	{1,2,3,4,5,6,7,9,10,11,12,13,14},
	{3,4,6,9,10,11,12,14},
	{2,3,4,5,6,7,9,10,11,12,13,14},
	{1,2,3,4,5,7,8,9,11,12,13,15,16},
	{3,4,6,7,8,9,10,11,12,14,16},
	{3,4,6,7,9,10,11,12,14},
	{1,2,3,4,5,6,7,8,9,10,11,12,13,14,15},
	{3,4,6,9,10,11,12,14},
	{2,5,7,13},
	{2,3,4,5,6,7,8,9,10,11,12,13,14},
	{2,3,4,5,6,7,8,11,12,13},
	{1,3,4,7,8,9,11,12,15,16},
	{2,3,4,5,6,7,8,9,10,11,12,13,14,15,16},
	{1,3,12,15},
	{2,3,4,5,6,7,8,9,11,12,16},
	{}];

POTENTIAL_ACT = [{4,5,8,9,11,13,15,17,20,23,28,30},
	{3,9,10,14,16,17,19,20,23,25,26,27,29,31},
	{2,3,4,5,6,7,8,9,10,11,12,13,15,16,17,18,19,20,21,22,23,24,26,27,28,29,30,31},
	{2,3,4,5,6,7,8,9,10,11,12,13,14,15,16,17,18,19,20,21,22,23,24,26,27,28,29,31},
	{3,9,10,14,16,17,19,20,23,25,26,27,29,31},
	{4,6,7,8,9,10,11,12,13,17,18,19,21,22,23,24,26,27,29,31},
	{2,3,4,5,6,7,8,9,10,11,13,14,15,16,17,19,20,21,22,23,25,26,27,28,29,31},
	{2,3,4,5,6,7,8,10,11,13,14,15,16,20,21,23,26,27,28,29,31},
	{2,3,4,5,6,7,8,9,10,11,12,13,14,15,16,17,18,19,20,21,22,23,24,26,28,29,31},
	{4,6,8,9,10,11,12,13,17,18,19,21,22,23,24,26,29},
	{2,3,4,5,6,7,8,9,10,11,12,13,14,15,16,17,18,19,20,21,22,23,24,26,27,28,29,31},
	{2,3,4,5,6,7,8,9,10,11,12,13,14,15,16,17,18,19,20,21,22,23,24,26,27,28,29,30,31},
	{10,14,17,19,20,23,25,26,27,29},
	{4,6,8,9,10,11,12,13,17,18,19,21,22,23,24,26,29},
	{4,5,8,11,15,20,23,28,29,30},
	{2,3,4,5,7,8,13,16,20,21,28,29,31}];
